Maximize
x1 + x2 + x3 + x4 + x5 + x6 + x7 + x8
 + x9 + x10 + x11 + x12 + x13 + x14 + x15 + x16
 + x17 + x18 + x19 + x20 + x21 + x22 + x23 + x24
 + x25 + x26 + x27 + x28 + x29 + x30 + x31 + x32
 + x33 + x34 + x35 + x36 + x37 + x38 + x39 + x40
 + x41 + x42 + x43 + x44 + x45 + x46 + x47 + x48
 + x49 + x50 + x51 + x52 + x53 + x54 + x55 + x56
 + x57 + x58 + x59 + x60 + x61 + x62 + x63 + x64
 + x65 + x66 + x67 + x68 + x69 + x70 + x71 + x72
 + x73 + x74 + x75 + x76 + x77 + x78 + x79 + x80
 + x81 + x82 + x83 + x84 + x85 + x86 + x87 + x88
 + x89 + x90 + x91 + x92 + x93 + x94 + x95 + x96
 + x97 + x98 + x99 + x100 + x101 + x102 + x103 + x104
 + x105 + x106 + x107 + x108 + x109 + x110 + x111 + x112
 + x113 + x114 + x115 + x116 + x117 + x118 + x119 + x120
 + x121 + x122 + x123 + x124 + x125 + x126 + x127 + x128
 + x129 + x130 + x131 + x132 + x133 + x134 + x135 + x136
 + x137 + x138 + x139 + x140 + x141 + x142 + x143 + x144
 + x145 + x146 + x147 + x148 + x149 + x150 + x151 + x152
 + x153 + x154 + x155 + x156 + x157 + x158 + x159 + x160
 + x161 + x162 + x163 + x164 + x165 + x166 + x167 + x168
 + x169 + x170 + x171 + x172 + x173 + x174 + x175 + x176
 + x177 + x178 + x179 + x180 + x181 + x182 + x183 + x184
 + x185 + x186 + x187 + x188 + x189 + x190 + x191 + x192
 + x193 + x194 + x195 + x196 + x197 + x198 + x199 + x200
subject to
c1: x1 + x4 + x35 <= 1
c2: x1 + x10 + x12 <= 1
c3: x1 + x11 + x48 <= 1
c4: x1 + x31 + x33 <= 1
c5: x1 + x40 + x156 <= 1
c6: x1 + x45 + x11 + x158 <= 1
c7: x1 + x51 + x156 <= 1
c8: x1 + x52 + x131 <= 1
c9: x1 + x70 + x103 <= 1
c10: x1 + x72 + x138 <= 1
c11: x1 + x81 + x128 <= 1
c12: x1 + x100 + x11 <= 1
c13: x1 + x102 + x128 <= 1
c14: x1 + x111 + x173 <= 1
c15: x1 + x113 + x138 + x131 <= 1
c16: x1 + x172 <= 1
c17: x1 + x188 + x11 <= 1
c18: x1 + x191 + x100 <= 1
c19: x2 + x4 <= 1
c20: x2 + x8 + x91 <= 1
c21: x2 + x10 <= 1
c22: x2 + x20 + x91 <= 1
c23: x2 + x36 + x193 <= 1
c24: x2 + x47 + x193 <= 1
c25: x2 + x61 + x193 <= 1
c26: x2 + x65 <= 1
c27: x2 + x75 <= 1
c28: x2 + x78 <= 1
c29: x2 + x86 + x20 <= 1
c30: x2 + x126 <= 1
c31: x2 + x138 <= 1
c32: x2 + x192 + x8 <= 1
c33: x3 + x20 + x180 <= 1
c34: x3 + x41 <= 1
c35: x3 + x47 <= 1
c36: x3 + x51 + x156 <= 1
c37: x3 + x56 + x156 <= 1
c38: x3 + x66 + x133 <= 1
c39: x3 + x67 <= 1
c40: x3 + x112 + x139 + x51 <= 1
c41: x3 + x114 + x112 <= 1
c42: x3 + x120 + x114 <= 1
c43: x3 + x132 + x184 <= 1
c44: x3 + x144 + x56 <= 1
c45: x3 + x174 <= 1
c46: x3 + x187 + x133 <= 1
c47: x4 + x9 + x183 <= 1
c48: x4 + x25 + x62 <= 1
c49: x4 + x40 + x144 <= 1
c50: x4 + x89 + x183 <= 1
c51: x4 + x127 + x196 <= 1
c52: x4 + x132 + x196 <= 1
c53: x4 + x148 + x89 <= 1
c54: x4 + x154 <= 1
c55: x4 + x165 <= 1
c56: x4 + x179 + x183 <= 1
c57: x4 + x190 + x144 <= 1
c58: x5 + x13 + x112 <= 1
c59: x5 + x22 + x32 <= 1
c60: x5 + x23 + x29 + x55 <= 1
c61: x5 + x26 + x22 <= 1
c62: x5 + x34 + x32 <= 1
c63: x5 + x37 <= 1
c64: x5 + x48 + x157 + x164 <= 1
c65: x5 + x49 + x195 <= 1
c66: x5 + x78 + x29 <= 1
c67: x5 + x93 <= 1
c68: x5 + x106 + x112 <= 1
c69: x5 + x110 <= 1
c70: x5 + x123 + x22 <= 1
c71: x5 + x125 + x78 <= 1
c72: x5 + x129 + x23 <= 1
c73: x5 + x131 + x29 <= 1
c74: x5 + x160 + x49 <= 1
c75: x5 + x170 + x13 <= 1
c76: x6 + x13 + x27 <= 1
c77: x6 + x28 <= 1
c78: x6 + x34 <= 1
c79: x6 + x36 + x183 <= 1
c80: x6 + x43 + x108 <= 1
c81: x6 + x49 + x104 <= 1
c82: x6 + x79 + x108 <= 1
c83: x6 + x85 + x43 <= 1
c84: x6 + x103 + x123 <= 1
c85: x6 + x105 + x119 <= 1
c86: x6 + x135 <= 1
c87: x7 + x19 + x69 <= 1
c88: x7 + x31 <= 1
c89: x7 + x37 + x155 <= 1
c90: x7 + x65 + x19 <= 1
c91: x7 + x82 + x196 <= 1
c92: x7 + x89 + x37 <= 1
c93: x7 + x99 + x196 <= 1
c94: x7 + x111 + x155 + x144 <= 1
c95: x7 + x112 + x155 <= 1
c96: x7 + x117 + x99 <= 1
c97: x7 + x157 + x182 <= 1
c98: x7 + x163 + x99 <= 1
c99: x7 + x165 <= 1
c100: x7 + x173 + x69 <= 1
c101: x7 + x174 + x37 <= 1
c102: x8 + x14 + x58 <= 1
c103: x8 + x23 + x91 <= 1
c104: x8 + x26 + x38 <= 1
c105: x8 + x37 + x83 <= 1
c106: x8 + x46 + x115 <= 1
c107: x8 + x60 + x128 <= 1
c108: x8 + x66 + x38 + x179 <= 1
c109: x8 + x69 + x128 <= 1
c110: x8 + x73 + x115 <= 1
c111: x8 + x80 + x58 <= 1
c112: x8 + x88 + x38 <= 1
c113: x8 + x90 + x58 <= 1
c114: x8 + x113 + x14 <= 1
c115: x8 + x124 + x184 <= 1
c116: x8 + x130 + x83 <= 1
c117: x8 + x136 + x128 <= 1
c118: x8 + x168 + x73 <= 1
c119: x8 + x177 + x128 <= 1
c120: x9 + x11 + x108 <= 1
c121: x9 + x26 + x151 <= 1
c122: x9 + x39 + x11 <= 1
c123: x9 + x41 + x42 + x94 <= 1
c124: x9 + x64 <= 1
c125: x9 + x69 + x42 <= 1
c126: x9 + x72 + x109 + x111 <= 1
c127: x9 + x117 + x108 + x182 <= 1
c128: x9 + x133 + x109 <= 1
c129: x9 + x137 + x117 <= 1
c130: x9 + x140 + x183 <= 1
c131: x9 + x144 + x11 <= 1
c132: x9 + x164 + x133 <= 1
c133: x9 + x172 + x41 <= 1
c134: x9 + x175 + x11 <= 1
c135: x10 + x37 + x119 <= 1
c136: x10 + x42 + x96 <= 1
c137: x10 + x69 + x97 <= 1
c138: x10 + x79 + x92 <= 1
c139: x10 + x94 + x155 <= 1
c140: x10 + x139 + x69 <= 1
c141: x10 + x169 <= 1
c142: x10 + x190 <= 1
c143: x11 + x15 + x17 + x100 <= 1
c144: x11 + x21 + x178 <= 1
c145: x11 + x37 + x178 + x100 <= 1
c146: x11 + x55 + x85 <= 1
c147: x11 + x81 + x114 <= 1
c148: x11 + x88 + x21 <= 1
c149: x11 + x90 + x129 <= 1
c150: x11 + x96 + x178 <= 1
c151: x11 + x141 + x17 <= 1
c152: x11 + x157 + x48 + x175 <= 1
c153: x11 + x160 + x178 <= 1
c154: x11 + x167 + x17 <= 1
c155: x11 + x177 + x37 <= 1
c156: x11 + x181 + x85 <= 1
c157: x11 + x185 + x21 <= 1
c158: x11 + x193 + x100 <= 1
c159: x11 + x200 + x178 + x129 <= 1
c160: x12 + x13 + x58 <= 1
c161: x12 + x15 + x24 <= 1
c162: x12 + x18 + x58 <= 1
c163: x12 + x21 <= 1
c164: x12 + x25 + x139 <= 1
c165: x12 + x47 <= 1
c166: x12 + x89 + x163 + x18 <= 1
c167: x12 + x106 + x89 <= 1
c168: x12 + x160 + x58 <= 1
c169: x13 + x15 + x12 <= 1
c170: x13 + x51 + x156 <= 1
c171: x13 + x54 + x112 <= 1
c172: x13 + x70 <= 1
c173: x13 + x115 + x152 <= 1
c174: x13 + x138 + x58 <= 1
c175: x13 + x139 + x112 + x51 <= 1
c176: x13 + x164 + x156 <= 1
c177: x13 + x174 <= 1
c178: x14 + x31 + x58 <= 1
c179: x14 + x44 + x48 <= 1
c180: x14 + x51 <= 1
c181: x14 + x55 + x85 <= 1
c182: x14 + x68 + x85 <= 1
c183: x14 + x84 + x58 <= 1
c184: x14 + x95 <= 1
c185: x14 + x118 + x58 <= 1
c186: x14 + x121 <= 1
c187: x14 + x122 + x85 <= 1
c188: x14 + x131 + x113 <= 1
c189: x14 + x135 + x149 <= 1
c190: x14 + x200 <= 1
c191: x15 + x39 + x43 <= 1
c192: x15 + x46 <= 1
c193: x15 + x60 + x17 <= 1
c194: x15 + x62 + x195 <= 1
c195: x15 + x75 <= 1
c196: x15 + x79 <= 1
c197: x15 + x89 + x12 <= 1
c198: x15 + x109 <= 1
c199: x15 + x177 + x11 <= 1
c200: x15 + x181 + x11 <= 1
c201: x16 + x36 + x136 + x165 <= 1
c202: x16 + x50 + x77 <= 1
c203: x16 + x61 + x184 <= 1
c204: x16 + x75 + x104 <= 1
c205: x16 + x80 + x156 <= 1
c206: x16 + x97 + x156 <= 1
c207: x16 + x98 + x147 <= 1
c208: x16 + x119 + x75 <= 1
c209: x16 + x122 + x104 <= 1
c210: x16 + x139 <= 1
c211: x16 + x174 <= 1
c212: x16 + x187 + x136 <= 1
c213: x17 + x20 + x83 <= 1
c214: x17 + x21 + x194 <= 1
c215: x17 + x25 + x194 <= 1
c216: x17 + x68 + x142 <= 1
c217: x17 + x72 + x151 <= 1
c218: x17 + x92 + x194 <= 1
c219: x17 + x94 + x161 <= 1
c220: x17 + x118 + x92 <= 1
c221: x17 + x119 + x141 <= 1
c222: x17 + x129 + x151 <= 1
c223: x17 + x133 + x142 <= 1
c224: x17 + x164 + x133 <= 1
c225: x17 + x166 + x142 <= 1
c226: x17 + x190 + x60 <= 1
c227: x17 + x195 + x194 <= 1
c228: x17 + x198 + x161 <= 1
c229: x18 + x27 + x163 <= 1
c230: x18 + x29 + x58 <= 1
c231: x18 + x34 <= 1
c232: x18 + x50 + x163 + x152 <= 1
c233: x18 + x55 + x29 <= 1
c234: x18 + x60 <= 1
c235: x18 + x78 + x29 <= 1
c236: x18 + x112 + x27 <= 1
c237: x18 + x130 + x29 <= 1
c238: x18 + x157 + x152 <= 1
c239: x18 + x177 + x163 <= 1
c240: x19 + x20 <= 1
c241: x19 + x23 + x29 <= 1
c242: x19 + x43 + x29 <= 1
c243: x19 + x51 + x43 <= 1
c244: x19 + x54 + x134 + x104 <= 1
c245: x19 + x61 + x99 + x191 <= 1
c246: x19 + x66 + x179 <= 1
c247: x19 + x90 + x101 <= 1
c248: x19 + x119 + x134 <= 1
c249: x19 + x128 + x69 <= 1
c250: x19 + x184 + x61 <= 1
c251: x19 + x185 + x134 <= 1
c252: x19 + x197 + x54 + x134 <= 1
c253: x20 + x27 + x55 <= 1
c254: x20 + x37 + x83 + x180 <= 1
c255: x20 + x60 + x64 <= 1
c256: x20 + x62 <= 1
c257: x20 + x76 + x91 <= 1
c258: x20 + x97 + x64 <= 1
c259: x20 + x109 <= 1
c260: x20 + x154 + x91 <= 1
c261: x20 + x155 + x158 + x180 <= 1
c262: x20 + x188 <= 1
c263: x20 + x199 + x180 <= 1
c264: x21 + x26 + x53 <= 1
c265: x21 + x36 + x88 <= 1
c266: x21 + x39 + x11 <= 1
c267: x21 + x44 + x165 <= 1
c268: x21 + x46 + x88 <= 1
c269: x21 + x61 + x194 <= 1
c270: x21 + x62 + x53 <= 1
c271: x21 + x63 <= 1
c272: x21 + x86 + x116 <= 1
c273: x21 + x93 + x61 <= 1
c274: x21 + x123 + x194 <= 1
c275: x21 + x128 <= 1
c276: x21 + x142 + x116 <= 1
c277: x21 + x143 + x88 <= 1
c278: x21 + x153 + x44 <= 1
c279: x21 + x197 + x178 <= 1
c280: x22 + x52 + x196 <= 1
c281: x22 + x63 + x32 <= 1
c282: x22 + x85 <= 1
c283: x22 + x95 + x109 <= 1
c284: x22 + x140 <= 1
c285: x22 + x146 + x156 <= 1
c286: x22 + x148 + x109 <= 1
c287: x22 + x160 + x146 <= 1
c288: x22 + x164 + x156 <= 1
c289: x22 + x172 <= 1
c290: x22 + x198 + x32 <= 1
c291: x22 + x199 + x156 <= 1
c292: x23 + x25 + x64 <= 1
c293: x23 + x67 + x77 <= 1
c294: x23 + x97 + x64 <= 1
c295: x23 + x103 + x91 <= 1
c296: x23 + x106 + x188 + x145 <= 1
c297: x23 + x130 + x29 + x178 <= 1
c298: x23 + x135 + x64 <= 1
c299: x23 + x153 + x55 <= 1
c300: x23 + x177 + x67 <= 1
c301: x24 + x27 + x69 <= 1
c302: x24 + x35 + x53 <= 1
c303: x24 + x36 <= 1
c304: x24 + x40 + x101 <= 1
c305: x24 + x43 + x51 <= 1
c306: x24 + x54 + x71 <= 1
c307: x24 + x74 + x54 <= 1
c308: x24 + x87 + x53 <= 1
c309: x24 + x90 + x101 <= 1
c310: x24 + x94 <= 1
c311: x24 + x128 + x69 <= 1
c312: x24 + x132 + x101 <= 1
c313: x24 + x168 <= 1
c314: x24 + x175 + x90 <= 1
c315: x24 + x186 + x53 <= 1
c316: x25 + x34 + x158 <= 1
c317: x25 + x41 + x189 <= 1
c318: x25 + x44 + x158 <= 1
c319: x25 + x65 + x64 <= 1
c320: x25 + x76 <= 1
c321: x25 + x80 <= 1
c322: x25 + x85 + x194 <= 1
c323: x25 + x90 + x105 <= 1
c324: x25 + x122 + x138 <= 1
c325: x26 + x34 + x5 <= 1
c326: x26 + x52 + x146 + x22 <= 1
c327: x26 + x78 + x5 <= 1
c328: x26 + x96 + x176 <= 1
c329: x26 + x117 + x127 <= 1
c330: x26 + x133 + x52 <= 1
c331: x26 + x171 + x176 <= 1
c332: x26 + x184 + x8 <= 1
c333: x27 + x32 <= 1
c334: x27 + x38 + x194 <= 1
c335: x27 + x44 + x38 <= 1
c336: x27 + x79 + x163 <= 1
c337: x27 + x85 + x194 <= 1
c338: x27 + x97 + x69 <= 1
c339: x27 + x129 + x151 + x193 <= 1
c340: x27 + x131 <= 1
c341: x27 + x169 <= 1
c342: x27 + x185 <= 1
c343: x28 + x33 + x82 <= 1
c344: x28 + x92 + x160 <= 1
c345: x28 + x94 + x191 <= 1
c346: x28 + x102 + x186 <= 1
c347: x28 + x124 <= 1
c348: x28 + x138 + x94 <= 1
c349: x28 + x166 <= 1
c350: x28 + x167 + x173 <= 1
c351: x28 + x198 + x200 <= 1
c352: x29 + x32 + x161 + x132 <= 1
c353: x29 + x36 + x58 <= 1
c354: x29 + x38 + x161 <= 1
c355: x29 + x46 + x82 <= 1
c356: x29 + x52 + x55 <= 1
c357: x29 + x71 + x58 <= 1
c358: x29 + x74 + x77 <= 1
c359: x29 + x83 + x71 <= 1
c360: x29 + x86 + x77 <= 1
c361: x29 + x120 + x46 <= 1
c362: x29 + x124 + x32 <= 1
c363: x29 + x143 + x43 <= 1
c364: x29 + x145 + x58 <= 1
c365: x29 + x151 + x172 <= 1
c366: x29 + x158 + x180 <= 1
c367: x29 + x193 + x38 <= 1
c368: x30 + x34 <= 1
c369: x30 + x47 + x142 <= 1
c370: x30 + x49 + x105 <= 1
c371: x30 + x69 <= 1
c372: x30 + x71 + x96 <= 1
c373: x30 + x88 + x71 <= 1
c374: x30 + x120 + x49 <= 1
c375: x30 + x124 <= 1
c376: x30 + x127 <= 1
c377: x30 + x160 + x49 <= 1
c378: x30 + x180 <= 1
c379: x31 + x42 + x98 <= 1
c380: x31 + x49 <= 1
c381: x31 + x68 + x14 <= 1
c382: x31 + x106 <= 1
c383: x31 + x122 + x190 <= 1
c384: x31 + x124 <= 1
c385: x31 + x129 + x192 <= 1
c386: x31 + x134 + x98 <= 1
c387: x32 + x39 <= 1
c388: x32 + x40 <= 1
c389: x32 + x41 + x200 <= 1
c390: x32 + x54 + x56 <= 1
c391: x32 + x84 + x136 + x165 <= 1
c392: x32 + x104 + x54 <= 1
c393: x32 + x118 + x122 <= 1
c394: x32 + x135 + x161 <= 1
c395: x32 + x177 + x56 <= 1
c396: x32 + x188 + x198 <= 1
c397: x32 + x197 + x54 <= 1
c398: x33 + x41 + x73 <= 1
c399: x33 + x43 + x108 <= 1
c400: x33 + x60 + x128 + x180 <= 1
c401: x33 + x75 + x104 <= 1
c402: x33 + x100 + x41 <= 1
c403: x33 + x101 + x132 <= 1
c404: x33 + x120 + x108 <= 1
c405: x33 + x161 + x73 <= 1
c406: x33 + x178 + x108 <= 1
c407: x34 + x59 <= 1
c408: x34 + x150 <= 1
c409: x34 + x164 + x5 <= 1
c410: x34 + x168 <= 1
c411: x34 + x197 + x200 + x32 <= 1
c412: x34 + x198 + x200 + x32 <= 1
c413: x35 + x61 + x191 <= 1
c414: x35 + x64 + x81 <= 1
c415: x35 + x91 + x103 <= 1
c416: x35 + x95 + x53 <= 1
c417: x35 + x114 + x81 <= 1
c418: x35 + x125 + x197 <= 1
c419: x35 + x152 + x157 <= 1
c420: x35 + x155 + x81 <= 1
c421: x35 + x187 <= 1
c422: x36 + x96 + x196 <= 1
c423: x36 + x97 + x16 <= 1
c424: x36 + x106 + x136 <= 1
c425: x36 + x141 + x149 <= 1
c426: x36 + x197 + x196 <= 1
c427: x37 + x41 + x189 <= 1
c428: x37 + x105 + x156 <= 1
c429: x37 + x118 + x178 <= 1
c430: x37 + x132 + x141 <= 1
c431: x37 + x137 + x146 + x180 <= 1
c432: x37 + x148 + x89 <= 1
c433: x37 + x149 + x141 <= 1
c434: x37 + x151 + x189 <= 1
c435: x37 + x192 + x8 <= 1
c436: x37 + x197 + x105 <= 1
c437: x38 + x47 + x128 <= 1
c438: x38 + x54 + x179 + x44 <= 1
c439: x38 + x59 + x194 <= 1
c440: x38 + x65 + x54 + x104 <= 1
c441: x38 + x99 + x200 <= 1
c442: x38 + x118 + x152 <= 1
c443: x38 + x119 + x44 <= 1
c444: x38 + x138 + x99 <= 1
c445: x38 + x140 + x104 <= 1
c446: x38 + x156 + x161 <= 1
c447: x38 + x159 + x88 <= 1
c448: x38 + x178 + x194 <= 1
c449: x38 + x189 <= 1
c450: x39 + x49 + x171 <= 1
c451: x39 + x66 + x83 <= 1
c452: x39 + x68 + x112 <= 1
c453: x39 + x91 + x100 <= 1
c454: x39 + x106 + x112 <= 1
c455: x39 + x111 + x9 <= 1
c456: x39 + x114 + x159 + x112 <= 1
c457: x39 + x174 <= 1
c458: x39 + x183 + x100 <= 1
c459: x39 + x187 <= 1
c460: x39 + x190 + x183 <= 1
c461: x40 + x73 + x109 <= 1
c462: x40 + x75 + x182 <= 1
c463: x40 + x76 + x145 <= 1
c464: x40 + x103 + x101 <= 1
c465: x40 + x105 + x156 <= 1
c466: x40 + x187 <= 1
c467: x41 + x58 + x147 <= 1
c468: x41 + x68 + x100 <= 1
c469: x41 + x70 + x147 + x200 <= 1
c470: x41 + x74 + x128 <= 1
c471: x41 + x99 + x172 <= 1
c472: x41 + x111 + x127 <= 1
c473: x41 + x124 + x100 <= 1
c474: x41 + x130 <= 1
c475: x41 + x131 + x42 <= 1
c476: x41 + x160 + x58 <= 1
c477: x41 + x168 + x73 <= 1
c478: x41 + x199 + x70 <= 1
c479: x42 + x54 + x171 <= 1
c480: x42 + x66 + x181 <= 1
c481: x42 + x72 + x66 <= 1
c482: x42 + x111 + x158 <= 1
c483: x42 + x118 <= 1
c484: x42 + x119 + x154 <= 1
c485: x42 + x133 + x162 <= 1
c486: x42 + x156 + x162 <= 1
c487: x42 + x194 + x154 <= 1
c488: x43 + x61 + x115 <= 1
c489: x43 + x62 + x77 <= 1
c490: x43 + x96 <= 1
c491: x43 + x133 + x200 <= 1
c492: x43 + x136 + x146 <= 1
c493: x43 + x139 + x51 <= 1
c494: x43 + x169 + x200 <= 1
c495: x43 + x171 + x179 <= 1
c496: x44 + x56 + x71 + x54 <= 1
c497: x44 + x60 <= 1
c498: x44 + x84 + x165 <= 1
c499: x44 + x124 + x54 <= 1
c500: x44 + x133 + x192 <= 1
c501: x44 + x150 + x54 <= 1
c502: x44 + x159 + x38 <= 1
c503: x44 + x167 + x48 <= 1
c504: x45 + x51 + x146 <= 1
c505: x45 + x58 <= 1
c506: x45 + x77 + x95 <= 1
c507: x45 + x83 <= 1
c508: x45 + x87 + x146 <= 1
c509: x45 + x103 + x109 <= 1
c510: x45 + x117 <= 1
c511: x45 + x129 + x11 <= 1
c512: x45 + x141 + x95 <= 1
c513: x45 + x152 + x109 <= 1
c514: x45 + x154 <= 1
c515: x46 + x59 <= 1
c516: x46 + x67 + x136 <= 1
c517: x46 + x72 + x166 <= 1
c518: x46 + x107 <= 1
c519: x46 + x145 + x136 <= 1
c520: x46 + x179 + x8 <= 1
c521: x47 + x50 + x77 <= 1
c522: x47 + x95 + x77 <= 1
c523: x47 + x109 + x142 <= 1
c524: x47 + x115 <= 1
c525: x47 + x146 + x77 <= 1
c526: x47 + x162 + x128 <= 1
c527: x47 + x170 <= 1
c528: x47 + x173 <= 1
c529: x47 + x178 + x146 <= 1
c530: x47 + x190 + x95 <= 1
c531: x48 + x57 <= 1
c532: x48 + x71 + x169 <= 1
c533: x48 + x76 <= 1
c534: x48 + x78 + x116 <= 1
c535: x48 + x101 + x71 <= 1
c536: x48 + x102 + x1 <= 1
c537: x48 + x107 + x183 <= 1
c538: x48 + x115 + x183 <= 1
c539: x48 + x120 <= 1
c540: x48 + x152 + x115 <= 1
c541: x48 + x182 + x157 <= 1
c542: x48 + x190 + x183 <= 1
c543: x49 + x57 + x108 <= 1
c544: x49 + x60 + x64 <= 1
c545: x49 + x63 + x115 <= 1
c546: x49 + x77 + x60 <= 1
c547: x49 + x90 + x105 <= 1
c548: x49 + x128 + x188 <= 1
c549: x49 + x130 + x195 <= 1
c550: x50 + x61 + x99 <= 1
c551: x50 + x100 <= 1
c552: x50 + x109 + x130 <= 1
c553: x50 + x123 + x163 + x186 <= 1
c554: x50 + x140 <= 1
c555: x50 + x147 + x195 <= 1
c556: x50 + x179 + x123 <= 1
c557: x50 + x181 + x163 + x186 <= 1
c558: x50 + x197 <= 1
c559: x50 + x199 <= 1
c560: x51 + x91 + x156 <= 1
c561: x51 + x115 + x192 <= 1
c562: x51 + x137 + x112 <= 1
c563: x51 + x148 + x181 <= 1
c564: x51 + x157 <= 1
c565: x51 + x167 + x156 <= 1
c566: x51 + x170 + x13 <= 1
c567: x52 + x56 + x196 + x144 <= 1
c568: x52 + x67 + x137 + x55 <= 1
c569: x52 + x68 + x196 <= 1
c570: x52 + x118 <= 1
c571: x52 + x119 + x56 <= 1
c572: x52 + x158 + x1 <= 1
c573: x52 + x166 + x181 <= 1
c574: x52 + x171 + x196 <= 1
c575: x53 + x69 + x62 <= 1
c576: x53 + x76 + x186 <= 1
c577: x53 + x85 + x194 <= 1
c578: x53 + x153 + x172 <= 1
c579: x53 + x169 <= 1
c580: x53 + x170 + x172 <= 1
c581: x53 + x189 + x62 <= 1
c582: x54 + x69 + x125 <= 1
c583: x54 + x82 + x196 <= 1
c584: x54 + x91 + x196 <= 1
c585: x54 + x116 + x71 <= 1
c586: x54 + x151 + x134 <= 1
c587: x54 + x165 + x74 <= 1
c588: x54 + x182 + x151 <= 1
c589: x54 + x183 + x179 <= 1
c590: x54 + x190 + x183 <= 1
c591: x54 + x193 + x112 <= 1
c592: x55 + x59 + x128 <= 1
c593: x55 + x70 + x114 <= 1
c594: x55 + x89 + x183 <= 1
c595: x55 + x102 + x128 <= 1
c596: x55 + x154 + x20 <= 1
c597: x55 + x172 + x153 <= 1
c598: x55 + x199 + x70 <= 1
c599: x56 + x57 + x87 <= 1
c600: x56 + x93 <= 1
c601: x56 + x138 + x71 <= 1
c602: x56 + x163 + x177 <= 1
c603: x56 + x164 + x156 <= 1
c604: x56 + x169 + x184 <= 1
c605: x56 + x173 <= 1
c606: x56 + x187 + x196 <= 1
c607: x57 + x64 + x97 <= 1
c608: x57 + x89 <= 1
c609: x57 + x121 + x87 <= 1
c610: x57 + x142 + x108 <= 1
c611: x57 + x194 + x87 <= 1
c612: x58 + x64 + x65 + x160 <= 1
c613: x58 + x101 + x71 + x138 <= 1
c614: x58 + x102 + x147 <= 1
c615: x58 + x108 + x80 <= 1
c616: x58 + x111 + x41 <= 1
c617: x58 + x119 + x71 <= 1
c618: x58 + x148 + x102 <= 1
c619: x58 + x156 + x80 <= 1
c620: x58 + x171 + x196 <= 1
c621: x58 + x178 + x108 + x118 <= 1
c622: x58 + x183 + x36 <= 1
c623: x59 + x75 + x134 <= 1
c624: x59 + x76 <= 1
c625: x59 + x80 <= 1
c626: x59 + x84 + x182 <= 1
c627: x59 + x121 <= 1
c628: x59 + x144 <= 1
c629: x59 + x161 + x38 <= 1
c630: x59 + x187 + x128 <= 1
c631: x60 + x92 + x128 <= 1
c632: x60 + x95 + x134 <= 1
c633: x60 + x126 + x134 <= 1
c634: x60 + x129 + x17 <= 1
c635: x60 + x139 + x172 <= 1
c636: x60 + x156 + x166 <= 1
c637: x60 + x191 <= 1
c638: x61 + x89 + x94 <= 1
c639: x61 + x108 + x176 <= 1
c640: x61 + x124 + x184 <= 1
c641: x61 + x129 + x151 + x193 <= 1
c642: x61 + x131 + x176 <= 1
c643: x61 + x134 + x94 <= 1
c644: x61 + x143 + x99 <= 1
c645: x62 + x66 <= 1
c646: x62 + x74 + x77 <= 1
c647: x62 + x98 <= 1
c648: x62 + x106 + x118 <= 1
c649: x62 + x107 <= 1
c650: x62 + x124 <= 1
c651: x62 + x125 + x69 <= 1
c652: x63 + x106 <= 1
c653: x63 + x113 <= 1
c654: x63 + x130 + x49 <= 1
c655: x63 + x134 <= 1
c656: x63 + x137 <= 1
c657: x63 + x147 <= 1
c658: x63 + x148 + x22 <= 1
c659: x63 + x156 + x22 <= 1
c660: x63 + x177 + x32 <= 1
c661: x64 + x74 + x165 <= 1
c662: x64 + x115 + x160 + x49 <= 1
c663: x64 + x143 + x173 <= 1
c664: x64 + x159 + x135 <= 1
c665: x64 + x161 + x198 <= 1
c666: x64 + x167 + x169 <= 1
c667: x65 + x77 + x95 <= 1
c668: x65 + x92 + x160 <= 1
c669: x65 + x113 + x186 <= 1
c670: x65 + x121 <= 1
c671: x65 + x125 + x142 <= 1
c672: x65 + x144 + x142 <= 1
c673: x66 + x73 + x161 <= 1
c674: x66 + x79 + x196 <= 1
c675: x66 + x80 + x179 + x79 <= 1
c676: x66 + x87 + x196 <= 1
c677: x66 + x92 + x194 <= 1
c678: x66 + x103 <= 1
c679: x66 + x155 <= 1
c680: x66 + x188 <= 1
c681: x67 + x74 + x77 <= 1
c682: x67 + x85 + x77 <= 1
c683: x67 + x90 <= 1
c684: x67 + x141 <= 1
c685: x67 + x152 + x168 <= 1
c686: x67 + x165 + x136 <= 1
c687: x68 + x71 <= 1
c688: x68 + x78 + x132 <= 1
c689: x68 + x89 <= 1
c690: x68 + x113 + x186 <= 1
c691: x68 + x126 + x170 <= 1
c692: x68 + x136 + x100 <= 1
c693: x68 + x151 + x193 + x100 <= 1
c694: x69 + x91 + x154 <= 1
c695: x69 + x114 + x195 <= 1
c696: x69 + x121 <= 1
c697: x69 + x138 <= 1
c698: x69 + x149 <= 1
c699: x69 + x152 <= 1
c700: x69 + x162 + x195 <= 1
c701: x69 + x200 <= 1
c702: x70 + x104 + x137 <= 1
c703: x70 + x106 <= 1
c704: x70 + x151 + x199 <= 1
c705: x70 + x177 <= 1
c706: x70 + x179 <= 1
c707: x70 + x190 <= 1
c708: x71 + x91 + x166 <= 1
c709: x71 + x144 + x169 + x56 <= 1
c710: x71 + x146 <= 1
c711: x71 + x147 + x58 <= 1
c712: x71 + x176 + x96 <= 1
c713: x71 + x194 <= 1
c714: x72 + x139 + x109 <= 1
c715: x72 + x165 <= 1
c716: x72 + x169 + x109 <= 1
c717: x73 + x86 + x169 + x200 <= 1
c718: x73 + x93 + x115 <= 1
c719: x73 + x104 + x176 <= 1
c720: x73 + x108 + x86 <= 1
c721: x73 + x122 + x195 + x153 <= 1
c722: x73 + x129 + x200 <= 1
c723: x73 + x149 + x172 <= 1
c724: x73 + x150 <= 1
c725: x73 + x154 + x176 <= 1
c726: x73 + x163 + x168 <= 1
c727: x74 + x89 <= 1
c728: x74 + x109 <= 1
c729: x74 + x116 + x176 <= 1
c730: x74 + x167 + x64 <= 1
c731: x74 + x170 + x165 <= 1
c732: x75 + x103 + x40 <= 1
c733: x75 + x131 + x182 <= 1
c734: x75 + x137 + x146 <= 1
c735: x75 + x141 + x119 <= 1
c736: x75 + x155 <= 1
c737: x75 + x157 + x182 <= 1
c738: x75 + x167 <= 1
c739: x76 + x81 <= 1
c740: x76 + x108 <= 1
c741: x76 + x125 + x186 <= 1
c742: x76 + x146 + x160 <= 1
c743: x76 + x150 + x91 <= 1
c744: x76 + x151 <= 1
c745: x76 + x168 <= 1
c746: x76 + x171 + x145 <= 1
c747: x77 + x93 <= 1
c748: x77 + x99 + x102 <= 1
c749: x77 + x111 + x86 <= 1
c750: x77 + x168 + x102 <= 1
c751: x77 + x171 + x99 <= 1
c752: x77 + x181 + x85 <= 1
c753: x77 + x193 + x29 <= 1
c754: x78 + x98 <= 1
c755: x78 + x103 <= 1
c756: x78 + x105 <= 1
c757: x78 + x167 + x132 <= 1
c758: x78 + x185 <= 1
c759: x78 + x187 <= 1
c760: x79 + x85 + x92 <= 1
c761: x79 + x93 <= 1
c762: x79 + x106 <= 1
c763: x79 + x125 <= 1
c764: x79 + x180 + x108 <= 1
c765: x79 + x187 + x196 <= 1
c766: x79 + x191 + x196 <= 1
c767: x80 + x87 + x156 <= 1
c768: x80 + x89 <= 1
c769: x80 + x110 <= 1
c770: x80 + x114 <= 1
c771: x80 + x142 + x179 + x108 <= 1
c772: x81 + x90 + x11 <= 1
c773: x81 + x99 <= 1
c774: x81 + x104 + x128 <= 1
c775: x81 + x112 + x155 <= 1
c776: x81 + x126 <= 1
c777: x81 + x147 + x128 <= 1
c778: x81 + x169 + x114 <= 1
c779: x81 + x199 <= 1
c780: x82 + x97 <= 1
c781: x82 + x118 <= 1
c782: x82 + x125 + x54 <= 1
c783: x82 + x128 + x188 <= 1
c784: x82 + x129 + x192 <= 1
c785: x82 + x149 + x196 <= 1
c786: x82 + x158 + x187 <= 1
c787: x82 + x199 <= 1
c788: x83 + x97 + x173 <= 1
c789: x83 + x99 + x102 <= 1
c790: x83 + x107 <= 1
c791: x83 + x127 + x166 <= 1
c792: x83 + x133 + x17 <= 1
c793: x83 + x144 + x97 <= 1
c794: x83 + x165 <= 1
c795: x83 + x167 + x173 <= 1
c796: x83 + x185 + x130 <= 1
c797: x83 + x193 + x29 <= 1
c798: x84 + x99 <= 1
c799: x84 + x115 <= 1
c800: x84 + x123 <= 1
c801: x84 + x145 + x136 <= 1
c802: x84 + x170 + x177 + x165 <= 1
c803: x85 + x88 + x159 <= 1
c804: x85 + x98 + x182 <= 1
c805: x85 + x107 + x194 <= 1
c806: x85 + x112 + x159 <= 1
c807: x86 + x88 + x21 <= 1
c808: x86 + x107 + x162 <= 1
c809: x86 + x119 <= 1
c810: x86 + x124 + x196 <= 1
c811: x86 + x148 <= 1
c812: x86 + x186 + x200 <= 1
c813: x87 + x105 + x156 <= 1
c814: x87 + x112 <= 1
c815: x87 + x115 <= 1
c816: x87 + x119 + x105 <= 1
c817: x87 + x130 <= 1
c818: x87 + x147 <= 1
c819: x87 + x150 <= 1
c820: x88 + x102 <= 1
c821: x88 + x114 + x159 <= 1
c822: x88 + x121 + x143 <= 1
c823: x88 + x125 + x159 <= 1
c824: x88 + x126 <= 1
c825: x88 + x131 <= 1
c826: x88 + x136 + x8 + x46 <= 1
c827: x88 + x158 + x11 <= 1
c828: x88 + x163 + x159 <= 1
c829: x89 + x101 + x127 <= 1
c830: x89 + x122 <= 1
c831: x89 + x125 <= 1
c832: x89 + x173 + x101 <= 1
c833: x89 + x175 <= 1
c834: x90 + x144 + x11 <= 1
c835: x90 + x149 <= 1
c836: x90 + x151 + x105 <= 1
c837: x90 + x170 + x101 <= 1
c838: x91 + x93 <= 1
c839: x91 + x102 + x161 <= 1
c840: x91 + x104 + x54 <= 1
c841: x91 + x118 <= 1
c842: x91 + x142 + x196 <= 1
c843: x91 + x186 + x102 <= 1
c844: x92 + x108 + x118 <= 1
c845: x92 + x135 <= 1
c846: x92 + x174 <= 1
c847: x93 + x117 <= 1
c848: x93 + x139 <= 1
c849: x93 + x183 + x115 <= 1
c850: x94 + x100 + x127 + x41 <= 1
c851: x94 + x108 + x179 <= 1
c852: x94 + x112 + x191 <= 1
c853: x94 + x114 + x195 <= 1
c854: x94 + x154 + x42 <= 1
c855: x95 + x97 + x134 <= 1
c856: x95 + x101 + x159 <= 1
c857: x95 + x123 + x159 <= 1
c858: x95 + x136 <= 1
c859: x95 + x174 <= 1
c860: x96 + x99 + x196 <= 1
c861: x96 + x144 + x159 + x196 <= 1
c862: x96 + x156 + x195 <= 1
c863: x96 + x157 + x159 <= 1
c864: x96 + x158 + x11 <= 1
c865: x96 + x166 + x156 <= 1
c866: x96 + x186 <= 1
c867: x96 + x189 + x195 <= 1
c868: x97 + x105 + x173 <= 1
c869: x97 + x122 + x189 <= 1
c870: x97 + x140 <= 1
c871: x98 + x99 + x138 <= 1
c872: x98 + x121 <= 1
c873: x98 + x127 <= 1
c874: x98 + x144 <= 1
c875: x98 + x146 + x188 <= 1
c876: x98 + x161 + x147 <= 1
c877: x98 + x168 + x183 <= 1
c878: x99 + x101 + x117 <= 1
c879: x99 + x103 + x101 <= 1
c880: x99 + x149 + x172 <= 1
c881: x99 + x150 <= 1
c882: x99 + x187 + x196 <= 1
c883: x100 + x137 + x191 <= 1
c884: x100 + x150 + x183 <= 1
c885: x100 + x157 + x11 <= 1
c886: x101 + x163 + x159 <= 1
c887: x101 + x192 <= 1
c888: x102 + x184 + x161 <= 1
c889: x103 + x142 + x169 + x109 <= 1
c890: x103 + x178 + x23 <= 1
c891: x104 + x109 + x133 <= 1
c892: x104 + x123 + x6 <= 1
c893: x104 + x152 + x134 <= 1
c894: x105 + x123 + x188 <= 1
c895: x105 + x172 + x175 <= 1
c896: x105 + x179 + x123 <= 1
c897: x106 + x109 + x185 <= 1
c898: x106 + x138 + x178 <= 1
c899: x107 + x138 <= 1
c900: x107 + x142 + x168 <= 1
c901: x107 + x154 + x162 <= 1
c902: x107 + x156 + x162 <= 1
c903: x108 + x197 + x120 <= 1
c904: x109 + x113 + x139 <= 1
c905: x109 + x131 + x113 <= 1
c906: x110 + x135 <= 1
c907: x110 + x154 <= 1
c908: x110 + x155 + x163 <= 1
c909: x110 + x165 <= 1
c910: x110 + x174 <= 1
c911: x110 + x191 + x196 <= 1
c912: x111 + x153 <= 1
c913: x111 + x157 + x7 <= 1
c914: x111 + x192 <= 1
c915: x112 + x141 <= 1
c916: x112 + x176 + x155 <= 1
c917: x112 + x183 + x39 <= 1
c918: x112 + x189 + x155 <= 1
c919: x113 + x132 + x68 <= 1
c920: x113 + x135 + x14 <= 1
c921: x113 + x153 <= 1
c922: x113 + x154 <= 1
c923: x113 + x164 <= 1
c924: x114 + x164 <= 1
c925: x114 + x170 <= 1
c926: x114 + x192 + x169 <= 1
c927: x114 + x196 + x169 <= 1
c928: x115 + x124 + x152 <= 1
c929: x115 + x153 + x73 <= 1
c930: x115 + x175 + x48 <= 1
c931: x115 + x188 + x49 <= 1
c932: x115 + x189 <= 1
c933: x115 + x191 + x61 <= 1
c934: x116 + x131 + x176 <= 1
c935: x116 + x133 + x142 <= 1
c936: x116 + x136 + x176 <= 1
c937: x116 + x161 + x192 <= 1
c938: x116 + x191 <= 1
c939: x116 + x193 + x54 <= 1
c940: x117 + x128 + x127 <= 1
c941: x117 + x135 + x147 <= 1
c942: x117 + x169 <= 1
c943: x117 + x174 + x7 <= 1
c944: x117 + x189 <= 1
c945: x117 + x194 + x127 <= 1
c946: x118 + x185 + x106 <= 1
c947: x119 + x127 <= 1
c948: x119 + x180 + x37 <= 1
c949: x120 + x140 <= 1
c950: x120 + x141 + x181 <= 1
c951: x120 + x162 <= 1
c952: x120 + x171 + x49 <= 1
c953: x120 + x188 + x49 <= 1
c954: x121 + x145 <= 1
c955: x121 + x185 <= 1
c956: x121 + x193 <= 1
c957: x121 + x196 + x87 <= 1
c958: x122 + x152 + x104 <= 1
c959: x122 + x155 + x189 <= 1
c960: x122 + x169 + x73 <= 1
c961: x122 + x171 <= 1
c962: x123 + x127 + x194 <= 1
c963: x123 + x139 <= 1
c964: x123 + x155 + x163 <= 1
c965: x123 + x162 <= 1
c966: x123 + x166 + x127 <= 1
c967: x123 + x169 + x103 <= 1
c968: x123 + x190 + x127 <= 1
c969: x123 + x191 + x163 <= 1
c970: x123 + x193 <= 1
c971: x124 + x137 + x100 <= 1
c972: x124 + x174 <= 1
c973: x125 + x134 + x197 + x54 <= 1
c974: x125 + x147 + x198 + x161 <= 1
c975: x125 + x194 <= 1
c976: x126 + x132 + x68 <= 1
c977: x126 + x140 <= 1
c978: x126 + x144 <= 1
c979: x126 + x173 <= 1
c980: x127 + x158 + x111 <= 1
c981: x127 + x170 + x101 <= 1
c982: x127 + x197 + x196 <= 1
c983: x128 + x141 <= 1
c984: x130 + x132 + x29 <= 1
c985: x130 + x183 <= 1
c986: x131 + x134 + x61 <= 1
c987: x131 + x175 <= 1
c988: x131 + x177 <= 1
c989: x131 + x198 <= 1
c990: x132 + x145 + x184 <= 1
c991: x132 + x148 + x184 <= 1
c992: x132 + x158 + x29 <= 1
c993: x133 + x178 + x200 <= 1
c994: x133 + x195 + x162 <= 1
c995: x134 + x145 <= 1
c996: x134 + x149 <= 1
c997: x135 + x141 + x149 <= 1
c998: x135 + x145 + x188 + x23 <= 1
c999: x135 + x146 + x188 <= 1
c1000: x135 + x179 <= 1
c1001: x136 + x199 <= 1
c1002: x137 + x142 <= 1
c1003: x137 + x150 + x100 <= 1
c1004: x137 + x162 <= 1
c1005: x138 + x190 + x122 <= 1
c1006: x139 + x161 <= 1
c1007: x139 + x168 + x180 <= 1
c1008: x139 + x185 + x109 <= 1
c1009: x139 + x196 <= 1
c1010: x139 + x199 + x180 <= 1
c1011: x140 + x142 + x168 <= 1
c1012: x140 + x185 <= 1
c1013: x140 + x187 <= 1
c1014: x141 + x151 + x17 <= 1
c1015: x141 + x153 <= 1
c1016: x141 + x175 + x11 <= 1
c1017: x141 + x184 + x181 <= 1
c1018: x142 + x174 + x166 <= 1
c1019: x142 + x189 <= 1
c1020: x143 + x163 + x182 <= 1
c1021: x144 + x179 + x4 <= 1
c1022: x145 + x200 <= 1
c1023: x146 + x181 + x180 <= 1
c1024: x146 + x190 + x47 <= 1
c1025: x146 + x200 + x178 <= 1
c1026: x147 + x153 + x195 <= 1
c1027: x147 + x157 <= 1
c1028: x148 + x153 <= 1
c1029: x148 + x194 <= 1
c1030: x148 + x199 + x22 <= 1
c1031: x149 + x184 + x198 <= 1
c1032: x150 + x188 <= 1
c1033: x151 + x159 <= 1
c1034: x154 + x159 <= 1
c1035: x154 + x170 <= 1
c1036: x154 + x171 + x176 <= 1
c1037: x154 + x178 + x194 <= 1
c1038: x155 + x175 <= 1
c1039: x155 + x184 <= 1
c1040: x155 + x200 <= 1
c1041: x156 + x198 + x195 <= 1
c1042: x157 + x168 + x152 <= 1
c1043: x157 + x194 <= 1
c1044: x158 + x179 + x183 <= 1
c1045: x159 + x175 + x157 <= 1
c1046: x161 + x166 + x17 <= 1
c1047: x161 + x173 + x64 <= 1
c1048: x162 + x164 + x133 <= 1
c1049: x162 + x175 <= 1
c1050: x162 + x184 + x195 <= 1
c1051: x162 + x192 + x133 <= 1
c1052: x163 + x183 + x168 <= 1
c1053: x164 + x185 <= 1
c1054: x165 + x175 <= 1
c1055: x165 + x189 <= 1
c1056: x165 + x198 + x32 <= 1
c1057: x166 + x199 + x156 <= 1
c1058: x167 + x172 <= 1
c1059: x167 + x174 <= 1
c1060: x167 + x184 + x169 <= 1
c1061: x168 + x179 + x183 <= 1
c1062: x168 + x188 + x98 <= 1
c1063: x169 + x177 + x56 <= 1
c1064: x169 + x180 <= 1
c1065: x170 + x191 <= 1
c1066: x171 + x177 <= 1
c1067: x172 + x194 + x53 <= 1
c1068: x172 + x197 + x105 <= 1
c1069: x173 + x194 + x195 <= 1
c1070: x173 + x199 <= 1
c1071: x175 + x185 + x11 <= 1
c1072: x176 + x179 + x108 <= 1
c1073: x176 + x185 <= 1
c1074: x176 + x195 + x73 <= 1
c1075: x178 + x198 + x200 <= 1
c1076: x182 + x186 + x200 <= 1
c1077: x183 + x184 <= 1
c1078: x184 + x186 + x102 <= 1
c1079: x184 + x188 + x198 <= 1
c1080: x184 + x193 + x61 <= 1
c1081: x191 + x195 + x198 <= 1
c1082: x191 + x199 <= 1

binaries
    x1
    x2
    x3
    x4
    x5
    x6
    x7
    x8
    x9
    x10
    x11
    x12
    x13
    x14
    x15
    x16
    x17
    x18
    x19
    x20
    x21
    x22
    x23
    x24
    x25
    x26
    x27
    x28
    x29
    x30
    x31
    x32
    x33
    x34
    x35
    x36
    x37
    x38
    x39
    x40
    x41
    x42
    x43
    x44
    x45
    x46
    x47
    x48
    x49
    x50
    x51
    x52
    x53
    x54
    x55
    x56
    x57
    x58
    x59
    x60
    x61
    x62
    x63
    x64
    x65
    x66
    x67
    x68
    x69
    x70
    x71
    x72
    x73
    x74
    x75
    x76
    x77
    x78
    x79
    x80
    x81
    x82
    x83
    x84
    x85
    x86
    x87
    x88
    x89
    x90
    x91
    x92
    x93
    x94
    x95
    x96
    x97
    x98
    x99
    x100
    x101
    x102
    x103
    x104
    x105
    x106
    x107
    x108
    x109
    x110
    x111
    x112
    x113
    x114
    x115
    x116
    x117
    x118
    x119
    x120
    x121
    x122
    x123
    x124
    x125
    x126
    x127
    x128
    x129
    x130
    x131
    x132
    x133
    x134
    x135
    x136
    x137
    x138
    x139
    x140
    x141
    x142
    x143
    x144
    x145
    x146
    x147
    x148
    x149
    x150
    x151
    x152
    x153
    x154
    x155
    x156
    x157
    x158
    x159
    x160
    x161
    x162
    x163
    x164
    x165
    x166
    x167
    x168
    x169
    x170
    x171
    x172
    x173
    x174
    x175
    x176
    x177
    x178
    x179
    x180
    x181
    x182
    x183
    x184
    x185
    x186
    x187
    x188
    x189
    x190
    x191
    x192
    x193
    x194
    x195
    x196
    x197
    x198
    x199
    x200
    x201
    x202
    x203
    x204
    x205
    x206
    x207
    x208
    x209
    x210
    x211
    x212
    x213
    x214
    x215
    x216
    x217
    x218
    x219
    x220
    x221
    x222
    x223
    x224
    x225
    x226
    x227
    x228
    x229
    x230
    x231
    x232
    x233
    x234
    x235
    x236
    x237
    x238
    x239
    x240
    x241
    x242
    x243
    x244
    x245
    x246
    x247
    x248
    x249
    x250
    x251
    x252
    x253
    x254
    x255
    x256
    x257
    x258
    x259
    x260
    x261
    x262
    x263
    x264
    x265
    x266
    x267
    x268
    x269
    x270
    x271
    x272
    x273
    x274
    x275
    x276
    x277
    x278
    x279
    x280
    x281
    x282
    x283
    x284
    x285
    x286
    x287
    x288
    x289
    x290
    x291
    x292
    x293
    x294
    x295
    x296
    x297
    x298
    x299
    x300
    x301
    x302
    x303
    x304
    x305
    x306
    x307
    x308
    x309
    x310
    x311
    x312
    x313
    x314
    x315
    x316
    x317
    x318
    x319
    x320
    x321
    x322
    x323
    x324
    x325
    x326
    x327
    x328
    x329
    x330
    x331
    x332
    x333
    x334
    x335
    x336
    x337
    x338
    x339
    x340
    x341
    x342
    x343
    x344
    x345
    x346
    x347
    x348
    x349
    x350
    x351
    x352
    x353
    x354
    x355
    x356
    x357
    x358
    x359
    x360
    x361
    x362
    x363
    x364
    x365
    x366
    x367
    x368
    x369
    x370
    x371
    x372
    x373
    x374
    x375
    x376
    x377
    x378
    x379
    x380
    x381
    x382
    x383
    x384
    x385
    x386
    x387
    x388
    x389
    x390
    x391
    x392
    x393
    x394
    x395
    x396
    x397
    x398
    x399
    x400

END
